GLPSOL--GLPK LP/MIP Solver 5.0
Parameter(s) specified in the command line:
 --lp ../modeles/2_354.lp --log 2_354.log
Reading problem data from '../modeles/2_354.lp'...
717 rows, 1420 columns, 4962 non-zeros
708 integer variables, all of which are binary
2145 lines were read
GLPK Integer Optimizer 5.0
717 rows, 1420 columns, 4962 non-zeros
708 integer variables, all of which are binary
Preprocessing...
700 constraint coefficient(s) were reduced
717 rows, 1418 columns, 4960 non-zeros
708 integer variables, all of which are binary
Scaling...
 A: min|aij| =  1.277e-04  max|aij| =  4.000e+00  ratio =  3.133e+04
GM: min|aij| =  7.516e-02  max|aij| =  1.330e+01  ratio =  1.770e+02
EQ: min|aij| =  5.650e-03  max|aij| =  1.000e+00  ratio =  1.770e+02
2N: min|aij| =  3.906e-03  max|aij| =  1.771e+00  ratio =  4.534e+02
Constructing initial basis...
Size of triangular part is 717
Solving LP relaxation...
GLPK Simplex Optimizer 5.0
717 rows, 1418 columns, 4960 non-zeros
      0: obj =   4.000000000e+00 inf =   9.500e+00 (5)
     41: obj =   4.700572997e-01 inf =   0.000e+00 (0)
*   165: obj =  -1.414169492e+00 inf =   2.997e-17 (0)
OPTIMAL LP SOLUTION FOUND
Integer optimization begins...
Long-step dual simplex will be used
+   165: mip =     not found yet >=              -inf        (1; 0)
+   371: >>>>>  -1.414169492e+00 >=  -1.414169492e+00 < 0.1% (206; 0)
+   371: mip =  -1.414169492e+00 >=     tree is empty   0.0% (0; 411)
INTEGER OPTIMAL SOLUTION FOUND
Time used:   0.2 secs
Memory used: 2.1 Mb (2205330 bytes)
